(set-info :origin "NTS benchmark converted to SMT-LIB2 using Eldarica (http://lara.epfl.ch/w/eldarica)")
(set-logic HORN)
(declare-fun main_q2 (Int Int Int Int) Bool)
(declare-fun main_q3 () Bool)
(declare-fun main_q0 (Int Int Int Int) Bool)
(declare-fun main_q1 (Int Int Int Int) Bool)
(declare-fun f_q3 (Int Int Int Int) Bool)
(declare-fun f_q4 (Int Int Int Int Int Int) Bool)
(declare-fun f_q2 (Int Int Int Int Int Int) Bool)
(declare-fun f_q0 (Int Int Int Int Int Int) Bool)
(declare-fun f_q1 (Int Int Int Int Int Int) Bool)
(assert(not (exists((?A Int)(?B Int)(?C Int)(?D Int))(and (main_q2 ?A ?B ?C ?D)(not (= ?C (+ ?D 1)))))))
(assert(forall((?A Int)(?B Int)(?C Int)(?D Int)(?E Int)(?F Int))(=>(and (main_q2 ?A ?B ?C ?D)(and (= ?C (+ ?D 1)) (and (= ?C ?E) (= ?D ?F)))) main_q3)))
(assert(forall((?A Int)(?B Int)(?C Int)(?D Int)(?E Int)(?F Int))(=>(and (main_q0 ?A ?B ?E ?F)(and (>= ?D 0) (= ?E ?C))) (main_q1 ?A ?B ?C ?D))))
(assert(forall((?A Int)(?B Int)(?C Int)(?D Int))(=>(and (= ?A ?C) (= ?B ?D)) (main_q0 ?A ?B ?C ?D))))
(assert(forall((?A Int)(?B Int)(?C Int)(?D Int)(?E Int)(?F Int)(?G Int)(?H Int)(?I Int))(=>(and (f_q4 ?A ?B ?E ?F ?G ?H)(and (= ?C 1) (and (= ?G ?D) (= ?H ?I)))) (f_q3 ?A ?B ?C ?D))))
(assert(forall((?A Int)(?B Int)(?C Int)(?D Int)(?E Int)(?F Int)(?G Int)(?H Int)(?I Int))(=>(and (f_q2 ?A ?B ?E ?F ?G ?H)(and (= ?C (+ ?H 1)) (and (= ?G ?D) (= ?H ?I)))) (f_q3 ?A ?B ?C ?D))))
(assert(forall((?A Int)(?B Int)(?C Int)(?D Int)(?E Int)(?F Int)(?G Int)(?H Int)(?I Int))(=>(and (f_q0 ?A ?B ?C ?G ?H ?I)(and (not (> ?H 0)) (and (and (= ?G ?D) (= ?H ?E)) (= ?I ?F)))) (f_q4 ?A ?B ?C ?D ?E ?F))))
(assert(forall((?A Int)(?B Int)(?C Int)(?D Int)(?E Int)(?F Int)(?G Int)(?H Int)(?I Int))(=>(and (f_q0 ?A ?B ?C ?G ?H ?I)(and (> ?H 0) (and (and (= ?G ?D) (= ?H ?E)) (= ?I ?F)))) (f_q1 ?A ?B ?C ?D ?E ?F))))
(assert(forall((?A Int)(?B Int)(?C Int)(?D Int)(?E Int)(?F Int)(?G Int)(?H Int)(?I Int)(?J Int)(?K Int)(?L Int)(?M Int))(=>(and (and (and (and (f_q1 ?A ?B ?C ?G ?H ?I)(= ?J (- ?H 1)))(f_q3 ?K ?J ?L ?M))(= ?L ?F))(and (= ?G ?D) (= ?H ?E))) (f_q2 ?A ?B ?C ?D ?E ?F))))
(assert(forall((?A Int)(?B Int)(?C Int)(?D Int)(?E Int)(?F Int)(?G Int)(?H Int)(?I Int)(?J Int)(?K Int)(?L Int))(=>(and (and (f_q1 ?G ?H ?I ?J ?K ?L)(= ?B (- ?K 1)))(and (= ?A ?D) (= ?B ?E))) (f_q0 ?A ?B ?C ?D ?E ?F))))
(assert(forall((?A Int)(?B Int)(?C Int)(?D Int)(?E Int)(?F Int)(?G Int)(?H Int)(?I Int)(?J Int))(=>(and (and (and (and (main_q1 ?A ?B ?E ?F)(= ?G ?F))(f_q3 ?H ?G ?I ?J))(= ?I ?C))(= ?F ?D)) (main_q2 ?A ?B ?C ?D))))
(assert(forall((?A Int)(?B Int)(?C Int)(?D Int)(?E Int)(?F Int)(?G Int)(?H Int)(?I Int)(?J Int))(=>(and (and (main_q1 ?G ?H ?I ?J)(= ?B ?J))(and (= ?A ?D) (= ?B ?E))) (f_q0 ?A ?B ?C ?D ?E ?F))))
(check-sat)
